NAME : pr107
TYPE : OP
DIMENSION : 107
COST_LIMIT : 22152
ROUTE_NODES : 54
ROUTE_SCORE : 2667
ROUTE_COST : 18311
NODE_SEQUENCE_SECTION
1
3
6
2
5
7
9
10
14
17
18
20
23
24
26
29
30
32
35
36
38
41
42
44
47
48
50
53
54
51
52
49
46
45
43
40
39
37
34
33
31
28
27
25
22
21
19
16
15
13
12
11
8
4
-1
DEPOT_SECTION
1
-1
EOF
